NAME : morphed18-5-4
COMMENT : Generated using the function morphInstances from the R-package netgen (Bossek,2015) - Number of clusters: 5 Alpha: 0.5
TYPE : TSP
DIMENSION : 18
EDGE_WEIGHT_TYPE : EUC_2D
NODE_COORD_SECTION
1 66.932334294 93.8021465791
2 4.3157873326 48.8012831804
3 33.6587411603 71.8005155014
4 35.3839115035 88.5388093014
5 79.6569038412 53.5114457767
6 28.0055992118 29.4760187523
7 73.6257281721 63.2406779812
8 95.0598600724 85.539144257
9 87.4055180214 52.8914966012
10 13.2392414506 53.6543572372
11 74.1479552113 52.1808667559
12 38.6628074911 34.0031045397
13 8.9973998514 40.4637763627
14 69.5833268193 12.8175337945
15 44.2909460954 83.2573101299
16 58.4854189831 60.5708400097
17 89.7989276252 53.324764719
18 77.9922087716 92.5309497207
EOF
